all_keccak_equations/0xBE52DFF5EF196243_0x4BDA073B1B7B9CAF_0x014F1A6D41E5931B_0x7F7B3B7A04165B91_40/maximal_linearize.log

# variables: 2240
# non-linear: 256

        0.00 - Start computation

        0.00 - target guess 160
Set parameter Username
Academic license - for non-commercial use only - expires 2022-06-20
Set parameter Threads to value 64
Set parameter MIPFocus to value 3
        0.04 - there are 128 short nonlinear (11) polynomial
Set parameter TimeLimit to value 1800
Gurobi Optimizer version 9.5.0 build v9.5.0rc5 (linux64)
Thread count: 32 physical cores, 64 logical processors, using up to 64 threads
Optimize a model with 5200 rows, 2496 columns and 16269 nonzeros
Model fingerprint: 0x980ad586
Variable types: 0 continuous, 2496 integer (2496 binary)
Coefficient statistics:
  Matrix range     [1e+00, 1e+00]
  Objective range  [1e+00, 1e+00]
  Bounds range     [1e+00, 1e+00]
  RHS range        [3e+01, 2e+02]
Presolve removed 3790 rows and 1253 columns
Presolve time: 0.01s
Presolved: 1410 rows, 1243 columns, 5378 nonzeros
Variable types: 0 continuous, 1243 integer (1177 binary)
Root relaxation presolved: 1410 rows, 1243 columns, 5378 nonzeros


Root relaxation: objective 3.400000e+01, 1642 iterations, 0.05 seconds (0.06 work units)

    Nodes    |    Current Node    |     Objective Bounds      |     Work
 Expl Unexpl |  Obj  Depth IntInf | Incumbent    BestBd   Gap | It/Node Time

     0     0   34.00000    0  176          -   34.00000      -     -    0s
H    0     0                      34.0000000   34.00000  0.00%     -    0s

Cutting planes:
  Gomory: 27
  Flow cover: 1
  Zero half: 56
  RLT: 3

Explored 1 nodes (3866 simplex iterations) in 0.44 seconds (0.32 work units)
Thread count was 64 (of 64 available processors)

Solution count 1: 34 

Optimal solution found (tolerance 1.00e-04)
Best objective 3.400000000000e+01, best bound 3.400000000000e+01, gap 0.0000%
        0.49 - 	Solution num 1:
guessed:  x645 x647 x648 x650 x651 x653 x654 x655 x656 x674 x680 x708 x710 x711 x715 x775 x777 x778 x780 x782 x783 x785 x787 x789 x810 x875 x876 x879 x910 x941 x943 x946 x948 x1000 x1004 x1005 x1007 x1051 x1061 x1080 x1086 x1093 x1097 x1099 x1101 x1118 x1124 x1125 x1172 x1177 x1193 x1238 x1277 x1281 x1287 x1288 x1291 x1295 x1320 x1344 x1345 x1348 x1350 x1352 x1377 x1402 x1404 x1407 x1433 x1439 x1440 x1444 x1445 x1478 x1480 x1484 x1515 x1517 x1518 x1520 x1521 x1523 x1524 x1525 x1527 x1565 x1567 x1570 x1571 x1572 x1575 x1576 x1600 x1601 x1603 x1606 x1633 x1635 x1636 x1639 x1641 x1658 x1686 x1692 x1695 x1696 x1698 x1699 x1718 x1724 x1748 x1755 x1806 x1838 x1841 x1844 x1848 x1849 x1853 x1866 x1869 x1890 x1969 x1975 x1976 x1980 x1982 x1983 x1985 x1991 x1993 x1996 x1998 x1999 x2016 x2017 x2023 x2048 x2065 x2068 x2074 x2093 x2110 x2123 x2129 x2132 x2134 x2137 x2179 x2180 x2181 x2183 x2184 x2203 x2204 x2209 x2218 x2235 x2238 x2239[160]
linearized equations:  5 7 10 11 12 15 16 17 19 36 42 80 86 87 112 118 142 148 177 180 181 182 184 185 186 187 189 222 225 226 227 230 248 254
        0.49 - target guess 159
Set parameter Username
Academic license - for non-commercial use only - expires 2022-06-20
Set parameter Threads to value 64
Set parameter MIPFocus to value 3
        0.50 - there are 128 short nonlinear (11) polynomial
Set parameter TimeLimit to value 1800
Gurobi Optimizer version 9.5.0 build v9.5.0rc5 (linux64)
Thread count: 32 physical cores, 64 logical processors, using up to 64 threads
Optimize a model with 5200 rows, 2496 columns and 16269 nonzeros
Model fingerprint: 0xf33ce7ba
Variable types: 0 continuous, 2496 integer (2496 binary)
Coefficient statistics:
  Matrix range     [1e+00, 1e+00]
  Objective range  [1e+00, 1e+00]
  Bounds range     [1e+00, 1e+00]
  RHS range        [4e+01, 2e+02]
Presolve removed 3790 rows and 1253 columns
Presolve time: 0.01s
Presolved: 1410 rows, 1243 columns, 5378 nonzeros
Variable types: 0 continuous, 1243 integer (1177 binary)
Root relaxation presolved: 1410 rows, 1243 columns, 5378 nonzeros


Root relaxation: objective 3.500000e+01, 1630 iterations, 0.04 seconds (0.06 work units)

    Nodes    |    Current Node    |     Objective Bounds      |     Work
 Expl Unexpl |  Obj  Depth IntInf | Incumbent    BestBd   Gap | It/Node Time

*    0     0               0      35.0000000   35.00000  0.00%     -    0s

Explored 1 nodes (3602 simplex iterations) in 0.37 seconds (0.30 work units)
Thread count was 64 (of 64 available processors)

Solution count 1: 35 

Optimal solution found (tolerance 1.00e-04)
Best objective 3.500000000000e+01, best bound 3.500000000000e+01, gap 0.0000%
        0.87 - 	Solution num 1:
guessed:  x647 x648 x651 x655 x656 x671 x680 x708 x710 x711 x715 x775 x777 x778 x780 x782 x783 x785 x787 x801 x810 x875 x876 x879 x902 x910 x941 x943 x946 x948 x1000 x1004 x1005 x1054 x1057 x1061 x1077 x1080 x1086 x1092 x1093 x1097 x1099 x1118 x1124 x1172 x1177 x1193 x1229 x1276 x1277 x1281 x1287 x1288 x1291 x1305 x1344 x1345 x1348 x1349 x1350 x1362 x1402 x1404 x1407 x1433 x1436 x1439 x1440 x1442 x1444 x1445 x1475 x1480 x1484 x1486 x1514 x1517 x1518 x1520 x1521 x1523 x1525 x1526 x1527 x1565 x1567 x1570 x1571 x1572 x1575 x1576 x1589 x1600 x1603 x1606 x1633 x1635 x1636 x1639 x1655 x1658 x1692 x1695 x1696 x1698 x1699 x1715 x1718 x1724 x1740 x1745 x1748 x1803 x1806 x1841 x1849 x1869 x1929 x1936 x1975 x1976 x1980 x1981 x1982 x1983 x1991 x1996 x1999 x2009 x2016 x2023 x2065 x2068 x2074 x2078 x2085 x2097 x2110 x2129 x2132 x2134 x2137 x2154 x2176 x2179 x2180 x2181 x2189 x2196 x2200 x2203 x2209 x2218 x2231 x2235 x2236 x2238 x2239[159]
linearized equations:  5 7 10 11 12 15 16 17 33 36 42 72 80 86 118 135 139 142 148 177 180 181 182 184 185 186 187 222 225 226 227 230 245 247 254
        0.88 - target guess 158
Set parameter Username
Academic license - for non-commercial use only - expires 2022-06-20
Set parameter Threads to value 64
Set parameter MIPFocus to value 3
        0.91 - there are 128 short nonlinear (11) polynomial
Set parameter TimeLimit to value 1800
Gurobi Optimizer version 9.5.0 build v9.5.0rc5 (linux64)
Thread count: 32 physical cores, 64 logical processors, using up to 64 threads
Optimize a model with 5200 rows, 2496 columns and 16269 nonzeros
Model fingerprint: 0xe9c3ce76
Variable types: 0 continuous, 2496 integer (2496 binary)
Coefficient statistics:
  Matrix range     [1e+00, 1e+00]
  Objective range  [1e+00, 1e+00]
  Bounds range     [1e+00, 1e+00]
  RHS range        [4e+01, 2e+02]
Presolve removed 3790 rows and 1253 columns
Presolve time: 0.01s
Presolved: 1410 rows, 1243 columns, 5378 nonzeros
Variable types: 0 continuous, 1243 integer (1177 binary)
Root relaxation presolved: 1410 rows, 1243 columns, 5378 nonzeros


Root relaxation: objective 3.600000e+01, 1684 iterations, 0.05 seconds (0.07 work units)

    Nodes    |    Current Node    |     Objective Bounds      |     Work
 Expl Unexpl |  Obj  Depth IntInf | Incumbent    BestBd   Gap | It/Node Time

*    0     0               0      36.0000000   36.00000  0.00%     -    0s

Explored 1 nodes (3643 simplex iterations) in 0.36 seconds (0.31 work units)
Thread count was 64 (of 64 available processors)

Solution count 1: 36 

Optimal solution found (tolerance 1.00e-04)
Best objective 3.600000000000e+01, best bound 3.600000000000e+01, gap 0.0000%
        1.28 - 	Solution num 1:
guessed:  x647 x648 x651 x653 x654 x655 x656 x671 x680 x708 x710 x711 x715 x777 x778 x780 x783 x785 x787 x789 x801 x875 x876 x879 x941 x943 x946 x948 x1000 x1004 x1005 x1007 x1054 x1061 x1077 x1080 x1086 x1092 x1097 x1099 x1101 x1117 x1118 x1124 x1172 x1177 x1229 x1276 x1277 x1287 x1289 x1291 x1295 x1344 x1348 x1349 x1350 x1352 x1369 x1375 x1404 x1407 x1436 x1439 x1440 x1442 x1444 x1445 x1447 x1475 x1480 x1484 x1486 x1493 x1514 x1517 x1518 x1520 x1521 x1523 x1525 x1526 x1527 x1567 x1571 x1575 x1576 x1596 x1600 x1603 x1606 x1632 x1634 x1635 x1636 x1639 x1641 x1655 x1661 x1694 x1695 x1696 x1698 x1699 x1715 x1724 x1745 x1788 x1803 x1844 x1849 x1853 x1866 x1869 x1936 x1975 x1976 x1980 x1981 x1982 x1983 x1987 x1991 x1994 x1996 x1999 x2009 x2016 x2022 x2023 x2056 x2060 x2065 x2068 x2075 x2085 x2104 x2110 x2125 x2129 x2132 x2134 x2137 x2154 x2161 x2179 x2180 x2181 x2196 x2200 x2203 x2209 x2231 x2235 x2236 x2237 x2238 x2239[158]
linearized equations:  7 10 11 12 15 16 17 19 33 36 42 79 86 114 118 120 139 142 148 177 180 181 182 184 185 186 187 189 222 225 226 227 230 245 247 254
        1.28 - target guess 157
Set parameter Username
Academic license - for non-commercial use only - expires 2022-06-20
Set parameter Threads to value 64
Set parameter MIPFocus to value 3
        1.32 - there are 128 short nonlinear (11) polynomial
Set parameter TimeLimit to value 1800
Gurobi Optimizer version 9.5.0 build v9.5.0rc5 (linux64)
Thread count: 32 physical cores, 64 logical processors, using up to 64 threads
Optimize a model with 5200 rows, 2496 columns and 16269 nonzeros
Model fingerprint: 0xcd591960
Variable types: 0 continuous, 2496 integer (2496 binary)
Coefficient statistics:
  Matrix range     [1e+00, 1e+00]
  Objective range  [1e+00, 1e+00]
  Bounds range     [1e+00, 1e+00]
  RHS range        [4e+01, 2e+02]
Presolve removed 3790 rows and 1253 columns
Presolve time: 0.01s
Presolved: 1410 rows, 1243 columns, 5378 nonzeros
Variable types: 0 continuous, 1243 integer (1177 binary)
Root relaxation presolved: 1410 rows, 1243 columns, 5378 nonzeros


Root relaxation: objective 3.700000e+01, 1766 iterations, 0.05 seconds (0.08 work units)

    Nodes    |    Current Node    |     Objective Bounds      |     Work
 Expl Unexpl |  Obj  Depth IntInf | Incumbent    BestBd   Gap | It/Node Time

*    0     0               0      37.0000000   37.00000  0.00%     -    0s

Explored 1 nodes (3963 simplex iterations) in 0.38 seconds (0.33 work units)
Thread count was 64 (of 64 available processors)

Solution count 1: 37 

Optimal solution found (tolerance 1.00e-04)
Best objective 3.700000000000e+01, best bound 3.700000000000e+01, gap 0.0000%
        1.70 - 	Solution num 1:
guessed:  x648 x650 x651 x653 x654 x655 x671 x710 x711 x715 x778 x780 x783 x785 x787 x789 x801 x875 x876 x879 x907 x941 x943 x946 x948 x1000 x1004 x1005 x1007 x1051 x1054 x1061 x1077 x1084 x1086 x1092 x1099 x1101 x1124 x1168 x1172 x1177 x1229 x1236 x1272 x1276 x1277 x1287 x1291 x1295 x1348 x1349 x1350 x1352 x1369 x1375 x1407 x1439 x1440 x1444 x1445 x1475 x1482 x1486 x1488 x1493 x1514 x1518 x1520 x1521 x1523 x1525 x1527 x1538 x1571 x1572 x1575 x1596 x1604 x1606 x1629 x1632 x1634 x1635 x1636 x1638 x1639 x1641 x1655 x1661 x1662 x1689 x1694 x1695 x1696 x1698 x1699 x1715 x1722 x1745 x1747 x1752 x1783 x1788 x1803 x1841 x1844 x1846 x1848 x1849 x1853 x1866 x1887 x1936 x1940 x1942 x1943 x1975 x1976 x1980 x1982 x1983 x1991 x1994 x1996 x1998 x1999 x2016 x2020 x2022 x2023 x2060 x2065 x2068 x2085 x2091 x2092 x2104 x2107 x2108 x2110 x2129 x2132 x2134 x2137 x2160 x2161 x2179 x2180 x2181 x2183 x2196 x2200 x2202 x2203 x2235 x2238[157]
linearized equations:  7 10 11 12 15 16 17 19 33 40 42 79 85 86 115 118 120 139 142 146 148 180 181 182 184 185 186 187 189 222 225 226 227 230 245 247 254
        1.70 - target guess 156
Set parameter Username
Academic license - for non-commercial use only - expires 2022-06-20
Set parameter Threads to value 64
Set parameter MIPFocus to value 3
        1.73 - there are 128 short nonlinear (11) polynomial
Set parameter TimeLimit to value 1800
Gurobi Optimizer version 9.5.0 build v9.5.0rc5 (linux64)
Thread count: 32 physical cores, 64 logical processors, using up to 64 threads
Optimize a model with 5200 rows, 2496 columns and 16269 nonzeros
Model fingerprint: 0x9027143b
Variable types: 0 continuous, 2496 integer (2496 binary)
Coefficient statistics:
  Matrix range     [1e+00, 1e+00]
  Objective range  [1e+00, 1e+00]
  Bounds range     [1e+00, 1e+00]
  RHS range        [4e+01, 2e+02]
Presolve removed 3790 rows and 1253 columns
Presolve time: 0.01s
Presolved: 1410 rows, 1243 columns, 5378 nonzeros
Variable types: 0 continuous, 1243 integer (1177 binary)
Root relaxation presolved: 1410 rows, 1243 columns, 5378 nonzeros


Root relaxation: objective 3.800000e+01, 1846 iterations, 0.06 seconds (0.09 work units)

    Nodes    |    Current Node    |     Objective Bounds      |     Work
 Expl Unexpl |  Obj  Depth IntInf | Incumbent    BestBd   Gap | It/Node Time

     0     0   38.00000    0   10          -   38.00000      -     -    0s
H    0     0                      38.0000000   38.00000  0.00%     -    0s

Cutting planes:
  Gomory: 1
  Cover: 2
  Zero half: 1
  RLT: 1

Explored 1 nodes (4192 simplex iterations) in 0.40 seconds (0.36 work units)
Thread count was 64 (of 64 available processors)

Solution count 1: 38 

Optimal solution found (tolerance 1.00e-04)
Best objective 3.800000000000e+01, best bound 3.800000000000e+01, gap 0.0000%
        2.12 - 	Solution num 1:
guessed:  x648 x649 x651 x653 x655 x671 x680 x711 x715 x778 x779 x780 x783 x785 x787 x801 x810 x856 x876 x879 x910 x941 x943 x946 x948 x1000 x1054 x1061 x1077 x1080 x1086 x1099 x1124 x1134 x1172 x1177 x1229 x1232 x1238 x1272 x1276 x1277 x1287 x1291 x1295 x1329 x1348 x1349 x1350 x1352 x1369 x1388 x1439 x1440 x1444 x1445 x1475 x1482 x1484 x1493 x1501 x1514 x1517 x1518 x1520 x1521 x1523 x1525 x1533 x1551 x1571 x1572 x1575 x1596 x1600 x1606 x1610 x1616 x1632 x1636 x1638 x1639 x1641 x1651 x1655 x1661 x1670 x1692 x1693 x1694 x1695 x1696 x1698 x1699 x1715 x1745 x1747 x1764 x1786 x1788 x1803 x1822 x1844 x1848 x1849 x1853 x1857 x1864 x1866 x1869 x1910 x1936 x1955 x1980 x1983 x1992 x1993 x1994 x1996 x1998 x1999 x2016 x2019 x2020 x2023 x2035 x2059 x2065 x2068 x2074 x2085 x2092 x2104 x2107 x2110 x2132 x2134 x2137 x2173 x2176 x2178 x2179 x2180 x2181 x2183 x2196 x2200 x2203 x2209 x2215 x2219 x2222 x2229 x2236 x2237 x2238[156]
linearized equations:  10 11 12 15 16 17 33 36 42 52 79 86 96 98 118 120 139 142 148 161 180 181 182 184 185 186 187 189 202 222 223 225 226 227 230 245 247 254
        2.12 - target guess 155
Set parameter Username
Academic license - for non-commercial use only - expires 2022-06-20
Set parameter Threads to value 64
Set parameter MIPFocus to value 3
        2.15 - there are 128 short nonlinear (11) polynomial
Set parameter TimeLimit to value 1800
Gurobi Optimizer version 9.5.0 build v9.5.0rc5 (linux64)
Thread count: 32 physical cores, 64 logical processors, using up to 64 threads
Optimize a model with 5200 rows, 2496 columns and 16269 nonzeros
Model fingerprint: 0xf93b7d7f
Variable types: 0 continuous, 2496 integer (2496 binary)
Coefficient statistics:
  Matrix range     [1e+00, 1e+00]
  Objective range  [1e+00, 1e+00]
  Bounds range     [1e+00, 1e+00]
  RHS range        [4e+01, 2e+02]
Presolve removed 3790 rows and 1253 columns
Presolve time: 0.01s
Presolved: 1410 rows, 1243 columns, 5378 nonzeros
Variable types: 0 continuous, 1243 integer (1177 binary)
Root relaxation presolved: 1410 rows, 1243 columns, 5378 nonzeros


Root relaxation: objective 3.900000e+01, 2024 iterations, 0.07 seconds (0.10 work units)

    Nodes    |    Current Node    |     Objective Bounds      |     Work
 Expl Unexpl |  Obj  Depth IntInf | Incumbent    BestBd   Gap | It/Node Time

     0     0   39.00000    0   96          -   39.00000      -     -    0s
H    0     0                      39.0000000   39.00000  0.00%     -    0s
     0     0          -    0        39.00000   39.00000  0.00%     -    0s

Cutting planes:
  Gomory: 11
  Flow cover: 3
  Zero half: 42

Explored 1 nodes (8172 simplex iterations) in 0.90 seconds (0.58 work units)
Thread count was 64 (of 64 available processors)

Solution count 1: 39 

Optimal solution found (tolerance 1.00e-04)
Best objective 3.900000000000e+01, best bound 3.900000000000e+01, gap 0.0000%
        3.06 - 	Solution num 1:
guessed:  x648 x649 x671 x674 x680 x693 x695 x711 x715 x778 x779 x792 x801 x810 x823 x857 x876 x879 x892 x910 x922 x941 x943 x946 x955 x1000 x1054 x1066 x1068 x1077 x1080 x1086 x1092 x1104 x1106 x1117 x1118 x1124 x1137 x1152 x1171 x1172 x1185 x1218 x1229 x1230 x1232 x1251 x1270 x1287 x1289 x1298 x1316 x1355 x1369 x1404 x1450 x1475 x1484 x1486 x1493 x1514 x1515 x1517 x1520 x1523 x1532 x1551 x1567 x1582 x1596 x1600 x1603 x1606 x1619 x1621 x1632 x1633 x1634 x1636 x1638 x1639 x1646 x1652 x1655 x1661 x1662 x1673 x1694 x1695 x1696 x1706 x1715 x1718 x1745 x1752 x1767 x1786 x1788 x1789 x1803 x1806 x1825 x1844 x1845 x1846 x1848 x1857 x1869 x1922 x1936 x1971 x1987 x1992 x1993 x1994 x2002 x2015 x2016 x2017 x2023 x2036 x2039 x2056 x2060 x2061 x2071 x2074 x2075 x2085 x2092 x2107 x2108 x2110 x2125 x2132 x2140 x2154 x2155 x2178 x2179 x2180 x2181 x2182 x2183 x2185 x2191 x2196 x2200 x2203 x2209 x2222 x2231 x2236 x2238[155]
linearized equations:  10 11 12 22 24 33 36 40 42 55 65 68 79 80 86 99 114 118 120 128 139 142 148 161 177 180 181 182 184 203 222 223 225 226 236 245 247 248 254
        3.06 - target guess 154
Set parameter Username
Academic license - for non-commercial use only - expires 2022-06-20
Set parameter Threads to value 64
Set parameter MIPFocus to value 3
        3.10 - there are 128 short nonlinear (11) polynomial
Set parameter TimeLimit to value 1800
Gurobi Optimizer version 9.5.0 build v9.5.0rc5 (linux64)
Thread count: 32 physical cores, 64 logical processors, using up to 64 threads
Optimize a model with 5200 rows, 2496 columns and 16269 nonzeros
Model fingerprint: 0x50b3871d
Variable types: 0 continuous, 2496 integer (2496 binary)
Coefficient statistics:
  Matrix range     [1e+00, 1e+00]
  Objective range  [1e+00, 1e+00]
  Bounds range     [1e+00, 1e+00]
  RHS range        [4e+01, 2e+02]
Presolve removed 3790 rows and 1253 columns
Presolve time: 0.01s
Presolved: 1410 rows, 1243 columns, 5378 nonzeros
Variable types: 0 continuous, 1243 integer (1177 binary)
Root relaxation presolved: 1410 rows, 1243 columns, 5378 nonzeros


Root relaxation: objective 4.000000e+01, 2133 iterations, 0.11 seconds (0.11 work units)

    Nodes    |    Current Node    |     Objective Bounds      |     Work
 Expl Unexpl |  Obj  Depth IntInf | Incumbent    BestBd   Gap | It/Node Time

     0     0   40.00000    0   83          -   40.00000      -     -    0s
H    0     0                      40.0000000   40.00000  0.00%     -    0s
     0     0   40.00000    0  139   40.00000   40.00000  0.00%     -    0s

Cutting planes:
  Gomory: 8
  Flow cover: 3
  Zero half: 42

Explored 1 nodes (5205 simplex iterations) in 0.97 seconds (0.58 work units)
Thread count was 64 (of 64 available processors)

Solution count 1: 40 

Optimal solution found (tolerance 1.00e-04)
Best objective 4.000000000000e+01, best bound 4.000000000000e+01, gap 0.0000%
        4.08 - 	Solution num 1:
guessed:  x648 x649 x671 x680 x695 x711 x715 x778 x779 x801 x823 x824 x830 x856 x857 x859 x876 x879 x941 x943 x946 x1000 x1039 x1054 x1077 x1080 x1086 x1117 x1118 x1124 x1134 x1136 x1137 x1141 x1143 x1152 x1156 x1171 x1172 x1196 x1229 x1250 x1255 x1270 x1289 x1329 x1369 x1375 x1388 x1392 x1395 x1423 x1426 x1475 x1480 x1484 x1486 x1493 x1505 x1514 x1517 x1518 x1520 x1521 x1523 x1533 x1551 x1558 x1572 x1600 x1606 x1610 x1612 x1616 x1617 x1619 x1623 x1632 x1633 x1636 x1638 x1639 x1652 x1655 x1658 x1661 x1670 x1672 x1673 x1693 x1694 x1695 x1696 x1715 x1724 x1745 x1764 x1766 x1767 x1786 x1788 x1803 x1806 x1822 x1824 x1825 x1844 x1845 x1846 x1848 x1857 x1869 x1901 x1906 x1909 x1936 x1959 x1962 x1992 x1993 x1994 x2015 x2016 x2022 x2023 x2036 x2039 x2060 x2085 x2086 x2107 x2108 x2110 x2111 x2113 x2116 x2132 x2154 x2155 x2161 x2173 x2178 x2179 x2180 x2181 x2196 x2200 x2203 x2209 x2215 x2219 x2222 x2236 x2238[154]
linearized equations:  10 11 12 33 36 42 52 54 55 59 79 80 86 96 98 99 102 105 118 120 139 142 148 161 165 168 180 181 182 184 202 203 209 222 223 225 226 245 247 254
        4.08 - target guess 153
Set parameter Username
Academic license - for non-commercial use only - expires 2022-06-20
Set parameter Threads to value 64
Set parameter MIPFocus to value 3
        4.10 - there are 128 short nonlinear (11) polynomial
Set parameter TimeLimit to value 1800
Gurobi Optimizer version 9.5.0 build v9.5.0rc5 (linux64)
Thread count: 32 physical cores, 64 logical processors, using up to 64 threads
Optimize a model with 5200 rows, 2496 columns and 16269 nonzeros
Model fingerprint: 0x73c7044c
Variable types: 0 continuous, 2496 integer (2496 binary)
Coefficient statistics:
  Matrix range     [1e+00, 1e+00]
  Objective range  [1e+00, 1e+00]
  Bounds range     [1e+00, 1e+00]
  RHS range        [4e+01, 2e+02]
Presolve removed 3790 rows and 1253 columns
Presolve time: 0.01s
Presolved: 1410 rows, 1243 columns, 5378 nonzeros
Variable types: 0 continuous, 1243 integer (1177 binary)
Root relaxation presolved: 1410 rows, 1243 columns, 5378 nonzeros


Root relaxation: infeasible, 2319 iterations, 0.14 seconds (0.15 work units)

    Nodes    |    Current Node    |     Objective Bounds      |     Work
 Expl Unexpl |  Obj  Depth IntInf | Incumbent    BestBd   Gap | It/Node Time

     0     0 infeasible    0               - infeasible      -     -    0s

Explored 1 nodes (2319 simplex iterations) in 0.17 seconds (0.16 work units)
Thread count was 64 (of 64 available processors)

Solution count 0
No other solutions better than -1e+100

Model is infeasible
Best objective -, best bound -, gap -
        4.27 - 	Solution num 0:
        4.28 - increase high_eq_constraint to 1

Set parameter Username
Academic license - for non-commercial use only - expires 2022-06-20
Set parameter Threads to value 64
Set parameter MIPFocus to value 3
        4.32 - there are 128 short nonlinear (11) polynomial
Set parameter TimeLimit to value 1800
Gurobi Optimizer version 9.5.0 build v9.5.0rc5 (linux64)
Thread count: 32 physical cores, 64 logical processors, using up to 64 threads
Optimize a model with 5200 rows, 2496 columns and 16269 nonzeros
Model fingerprint: 0x3ee6c1b4
Variable types: 0 continuous, 2496 integer (2496 binary)
Coefficient statistics:
  Matrix range     [1e+00, 1e+00]
  Objective range  [1e+00, 1e+00]
  Bounds range     [1e+00, 1e+00]
  RHS range        [1e+00, 2e+02]
Presolve removed 973 rows and 973 columns
Presolve time: 0.02s
Presolved: 4227 rows, 1523 columns, 14195 nonzeros
Variable types: 0 continuous, 1523 integer (1523 binary)
Root relaxation presolved: 4227 rows, 1523 columns, 14195 nonzeros


Root relaxation: objective 4.100000e+01, 2498 iterations, 0.29 seconds (0.33 work units)

    Nodes    |    Current Node    |     Objective Bounds      |     Work
 Expl Unexpl |  Obj  Depth IntInf | Incumbent    BestBd   Gap | It/Node Time

     0     0   41.00000    0  678          -   41.00000      -     -    1s
     0     0   41.00000    0  711          -   41.00000      -     -    4s
     0     0   41.00000    0  716          -   41.00000      -     -    4s
     0     0   41.00000    0  726          -   41.00000      -     -    7s
     0     0   41.00000    0  726          -   41.00000      -     -    8s
     0     2   41.00000    0  726          -   41.00000      -     -   11s

Cutting planes:
  Flow cover: 3
  Zero half: 254
  RLT: 247

Explored 15 nodes (40062 simplex iterations) in 14.85 seconds (14.46 work units)
Thread count was 64 (of 64 available processors)

Solution count 0
No other solutions better than -1e+100

Model is infeasible
Best objective -, best bound -, gap -
       19.42 - 	Solution num 0:
       19.43 - increase high_eq_constraint to 2

Set parameter Username
Academic license - for non-commercial use only - expires 2022-06-20
Set parameter Threads to value 64
Set parameter MIPFocus to value 3
       19.49 - there are 128 short nonlinear (11) polynomial
Set parameter TimeLimit to value 1800
Gurobi Optimizer version 9.5.0 build v9.5.0rc5 (linux64)
Thread count: 32 physical cores, 64 logical processors, using up to 64 threads
Optimize a model with 5200 rows, 2496 columns and 16269 nonzeros
Model fingerprint: 0x4830dab5
Variable types: 0 continuous, 2496 integer (2496 binary)
Coefficient statistics:
  Matrix range     [1e+00, 1e+00]
  Objective range  [1e+00, 1e+00]
  Bounds range     [1e+00, 1e+00]
  RHS range        [2e+00, 2e+02]
Presolve removed 973 rows and 973 columns
Presolve time: 0.02s
Presolved: 4227 rows, 1523 columns, 14195 nonzeros
Variable types: 0 continuous, 1523 integer (1523 binary)
Root relaxation presolved: 4227 rows, 1523 columns, 14195 nonzeros


Root relaxation: objective 4.100000e+01, 2703 iterations, 0.34 seconds (0.39 work units)

    Nodes    |    Current Node    |     Objective Bounds      |     Work
 Expl Unexpl |  Obj  Depth IntInf | Incumbent    BestBd   Gap | It/Node Time

     0     0   41.00000    0  769          -   41.00000      -     -    1s
     0     0   41.00000    0  885          -   41.00000      -     -    4s
     0     0   41.00000    0  910          -   41.00000      -     -    4s
     0     0   41.00000    0  737          -   41.00000      -     -    7s
     0     0   41.00000    0  737          -   41.00000      -     -    8s
     0     2   41.00000    0  737          -   41.00000      -     -    9s
     1     4   41.00000    1  773          -   41.00000      -  5534   10s
    31    58   41.00000    5  976          -   41.00000      -  1579   17s
    63   104   41.00000    6  811          -   41.00000      -  1126   21s
   121   122   41.00000    7  956          -   41.00000      -  1347   25s
   313   100   41.00000    8  964          -   41.00000      -  1431   31s
   443    71 infeasible   12               -   41.00000      -  1285   37s
   659    29 infeasible   14               -   41.00000      -  1047   40s

Cutting planes:
  Gomory: 3
  Lift-and-project: 2
  Flow cover: 36
  Zero half: 533
  RLT: 285

Explored 771 nodes (784890 simplex iterations) in 42.04 seconds (39.98 work units)
Thread count was 64 (of 64 available processors)

Solution count 0
No other solutions better than -1e+100

Model is infeasible
Best objective -, best bound -, gap -
       61.53 - 	Solution num 0:
       61.57 - increase high_eq_constraint to 3

Set parameter Username
Academic license - for non-commercial use only - expires 2022-06-20
Set parameter Threads to value 64
Set parameter MIPFocus to value 3
       61.62 - there are 128 short nonlinear (11) polynomial
Set parameter TimeLimit to value 1800
Gurobi Optimizer version 9.5.0 build v9.5.0rc5 (linux64)
Thread count: 32 physical cores, 64 logical processors, using up to 64 threads
Optimize a model with 5200 rows, 2496 columns and 16269 nonzeros
Model fingerprint: 0xc9df60cf
Variable types: 0 continuous, 2496 integer (2496 binary)
Coefficient statistics:
  Matrix range     [1e+00, 1e+00]
  Objective range  [1e+00, 1e+00]
  Bounds range     [1e+00, 1e+00]
  RHS range        [3e+00, 2e+02]
Presolve removed 973 rows and 973 columns
Presolve time: 0.01s
Presolved: 4227 rows, 1523 columns, 14195 nonzeros
Variable types: 0 continuous, 1523 integer (1523 binary)
Root relaxation presolved: 4227 rows, 1523 columns, 14195 nonzeros


Root relaxation: objective 4.100000e+01, 2638 iterations, 0.21 seconds (0.39 work units)

    Nodes    |    Current Node    |     Objective Bounds      |     Work
 Expl Unexpl |  Obj  Depth IntInf | Incumbent    BestBd   Gap | It/Node Time

     0     0   41.00000    0  814          -   41.00000      -     -    2s
     0     0   41.00000    0  759          -   41.00000      -     -    4s
     0     0   41.00000    0  835          -   41.00000      -     -    4s
     0     0   41.00000    0  845          -   41.00000      -     -    7s
     0     0   41.00000    0  845          -   41.00000      -     -    9s
     0     2   41.00000    0  845          -   41.00000      -     -   13s
     3     8   41.00000    2  940          -   41.00000      -  3268   15s
    31    46   41.00000    5  949          -   41.00000      -  1255   21s
   109    68   41.00000    7  901          -   41.00000      -   959   28s
   165    74 infeasible    8               -   41.00000      -  1141   30s
   445   126   41.00000   12  957          -   41.00000      -   852   35s
   690   226   41.00000   16  602          -   41.00000      -   788   41s
   970   481   41.00000   19 1078          -   41.00000      -   734   48s
  1260   760   41.00000   22 1002          -   41.00000      -   686   53s
  1845   927 infeasible   31               -   41.00000      -   622   61s
  2588  1221 infeasible   36               -   41.00000      -   607   70s
  3646  1388 infeasible   36               -   41.00000      -   580   82s
  4987  1599   41.00000   40  865          -   41.00000      -   570   91s
  6462  1644 infeasible   71               -   41.00000      -   563   99s
  8215  1862 infeasible   60               -   41.00000      -   560  118s
 10153  2037 infeasible   44               -   41.00000      -   555  139s
 12260  2168   41.00000   51  753          -   41.00000      -   556  158s
 14471  2331 infeasible   38               -   41.00000      -   563  168s
 16822  2253 infeasible   38               -   41.00000      -   570  178s
 19380  2144 infeasible   64               -   41.00000      -   579  190s
 22079  2035 infeasible   75               -   41.00000      -   586  201s
 24710  1911 infeasible   84               -   41.00000      -   593  212s
 27416  1777 infeasible   87               -   41.00000      -   599  224s
 30144  1503 infeasible   80               -   41.00000      -   603  235s
 32836  1733 infeasible   59               -   41.00000      -   607  246s
 35551  1735   41.00000   53  814          -   41.00000      -   608  250s
 35554  1737   41.00000   22  933          -   41.00000      -   608  258s
 35555  1738   41.00000   17  908          -   41.00000      -   608  262s
 35556  1739   41.00000   62  879          -   41.00000      -   608  268s
 35557  1739   41.00000   32  879          -   41.00000      -   608  272s
 35559  1744   41.00000   15  746          -   41.00000      -   1.7  287s
 35561  1745 infeasible   16               -   41.00000      -   1.7  302s
 35565  1748   41.00000   17  956          -   41.00000      -   1.9  322s
 35571  1756   41.00000   18  989          -   41.00000      -   2.1  331s
 35581  1768   41.00000   19  938          -   41.00000      -   2.7  335s
 35601  1782   41.00000   20  886          -   41.00000      -   3.2  341s
 35637  1790 infeasible   21               -   41.00000      -   4.5  346s
 35693  1783   41.00000   22 1063          -   41.00000      -   9.4  353s
 35757  1800   41.00000   23  880          -   41.00000      -  11.1  360s
 35962  1824   41.00000   27 1060          -   41.00000      -  18.2  366s
 36043  1874 infeasible   27               -   41.00000      -  19.6  374s
 36272  1909   41.00000   29 1097          -   41.00000      -  22.6  388s
 36575  2036 infeasible   30               -   41.00000      -  26.6  400s
 37249  2004   41.00000   34 1078          -   41.00000      -  35.9  406s
 38100  1832 infeasible   38               -   41.00000      -  47.7  414s
 39139  1538 infeasible   45               -   41.00000      -  61.7  426s
 40200  1223 infeasible   43               -   41.00000      -  77.1  455s
 40704   970   41.00000   47  955          -   41.00000      -  88.9  468s
 41999   981 infeasible   54               -   41.00000      -   107  478s
 43251   932 infeasible   38               -   41.00000      -   123  502s
 44618   821 infeasible   38               -   41.00000      -   138  513s
 45873   782 infeasible   41               -   41.00000      -   153  525s
 47078   700 infeasible   38               -   41.00000      -   166  543s
 48338   628 infeasible   48               -   41.00000      -   178  552s
 49552   494 infeasible   48               -   41.00000      -   189  563s
 50686   432 infeasible   42               -   41.00000      -   199  583s
 51756   421 infeasible   35               -   41.00000      -   207  591s
 52817   349 infeasible   36               -   41.00000      -   215  598s
 53813   226 infeasible   45               -   41.00000      -   223  609s
 54690   111 infeasible   48               -   41.00000      -   230  622s
 55321    34   41.00000   37 1092          -   41.00000      -   235  625s
 55861    43 infeasible   45               -   41.00000      -   239  630s
 56061    20 infeasible   46               -   41.00000      -   240  640s

Cutting planes:
  Gomory: 1
  Lift-and-project: 10
  MIR: 2
  Flow cover: 61
  Zero half: 1361
  RLT: 409

Explored 56274 nodes (35259441 simplex iterations) in 643.99 seconds (1019.45 work units)
Thread count was 64 (of 64 available processors)

Solution count 0
No other solutions better than -1e+100

Model is infeasible
Best objective -, best bound -, gap -
      705.62 - 	Solution num 0:
      705.70 - increase high_eq_constraint to 4

Set parameter Username
Academic license - for non-commercial use only - expires 2022-06-20
Set parameter Threads to value 64
Set parameter MIPFocus to value 3
      705.74 - there are 128 short nonlinear (11) polynomial
Set parameter TimeLimit to value 1800
Gurobi Optimizer version 9.5.0 build v9.5.0rc5 (linux64)
Thread count: 32 physical cores, 64 logical processors, using up to 64 threads
Optimize a model with 5200 rows, 2496 columns and 16269 nonzeros
Model fingerprint: 0x37bb6181
Variable types: 0 continuous, 2496 integer (2496 binary)
Coefficient statistics:
  Matrix range     [1e+00, 1e+00]
  Objective range  [1e+00, 1e+00]
  Bounds range     [1e+00, 1e+00]
  RHS range        [4e+00, 2e+02]
Presolve removed 973 rows and 973 columns
Presolve time: 0.01s
Presolved: 4227 rows, 1523 columns, 14195 nonzeros
Variable types: 0 continuous, 1523 integer (1523 binary)
Root relaxation presolved: 4227 rows, 1523 columns, 14195 nonzeros


Root relaxation: objective 4.100000e+01, 2903 iterations, 0.23 seconds (0.43 work units)

    Nodes    |    Current Node    |     Objective Bounds      |     Work
 Expl Unexpl |  Obj  Depth IntInf | Incumbent    BestBd   Gap | It/Node Time

     0     0   41.00000    0  821          -   41.00000      -     -    1s
     0     0   41.00000    0  829          -   41.00000      -     -    4s
     0     0   41.00000    0  860          -   41.00000      -     -    4s
     0     0   41.00000    0  793          -   41.00000      -     -    6s
     0     0   41.00000    0  793          -   41.00000      -     -    7s
     0     2   41.00000    0  793          -   41.00000      -     -   11s
     3     8   41.00000    2  820          -   41.00000      -  4435   15s
    63   106   41.00000    6  849          -   41.00000      -  1526   20s
   411   593   41.00000    9  994          -   41.00000      -  1132   25s
  1543  1702   41.00000   23  819          -   41.00000      -   720   37s
  2931  2205   41.00000   17 1038          -   41.00000      -   582   50s
  4756  2691   41.00000   20 1061          -   41.00000      -   531   58s
  7160  3164   41.00000   13 1022          -   41.00000      -   504   66s
  9997  3553   41.00000   22  866          -   41.00000      -   493   79s
 13304  3904 infeasible   27               -   41.00000      -   489  100s
 16903  3907   41.00000   18  889          -   41.00000      -   487  105s
 16906  3909   41.00000   26  906          -   41.00000      -   486  112s
 16907  3910   41.00000   22  870          -   41.00000      -   486  119s
 16908  3910   41.00000   15  870          -   41.00000      -   486  123s
 16910  3915   41.00000   15  726          -   41.00000      -   2.8  135s
 16912  3918   41.00000   16  755          -   41.00000      -   2.9  146s
 16916  3925   41.00000   17  715          -   41.00000      -   3.0  156s
 16924  3938   41.00000   18  650          -   41.00000      -   3.3  161s
 16940  3965   41.00000   19  784          -   41.00000      -   4.2  165s
 17036  4055   41.00000   21  672          -   41.00000      -  10.7  170s
 17164  4260   41.00000   23 1008          -   41.00000      -  25.6  180s
 17386  4491   41.00000   25 1069          -   41.00000      -  40.4  198s
 17773  4933   41.00000   26  843          -   41.00000      -  56.2  251s
 18674  5142   41.00000   30  979          -   41.00000      -   136  300s
 19946  5770   41.00000   37  804          -   41.00000      -   269  366s
 23598  4977   41.00000   35 1086          -   41.00000      -   323  434s
 25319  5219   41.00000   32  856          -   41.00000      -   343  554s
 30826  4704   41.00000   33  974          -   41.00000      -   400  701s
 34449  5441   41.00000   45  908          -   41.00000      -   426  832s
 39764  5837   41.00000   48 1090          -   41.00000      -   454  947s
 44622  5988   41.00000   27 1066          -   41.00000      -   476 1088s
 49865  5998   41.00000   38 1048          -   41.00000      -   497 1200s
 54229  5961   41.00000   41 1152          -   41.00000      -   513 1320s
 58814  6109 infeasible   44               -   41.00000      -   527 1426s
 63550  6839   41.00000   45 1094          -   41.00000      -   539 1499s
 68994  7350 infeasible   68               -   41.00000      -   547 1611s
 74237  7519 infeasible   38               -   41.00000      -   555 1694s
 75308  8025   41.00000   43 1170          -   41.00000      -   557 1800s

Cutting planes:
  Lift-and-project: 6
  MIR: 1
  Flow cover: 205
  Zero half: 1292
  RLT: 295

Explored 81438 nodes (54439028 simplex iterations) in 1800.15 seconds (1778.72 work units)
Thread count was 64 (of 64 available processors)

Solution count 0

Time limit reached
Best objective -, best bound 4.100000000000e+01, gap -
     2506.22 - best linearization 40


